\ Model (null)_copy
\ LP format - for model browsing. Use MPS format to capture full model detail.
Minimize
 
Subject To
 C2471: X2738 - 999999 X2821 >= -999995
 C2479: - X2738 + X2739 - 999999 X2825 >= -999992
 C2484: - X2738 + X2739 + 999999 X2827 <= 999996
 C2823: X3651 + X3652 + X3653 + X3654 <= 1
 C2872: - X3445 + X3652 >= 0
 C2878: - 999999 X2831 + X3447 >= -999998
 C2879: - X3447 + X3654 >= 0
 C2880: - X3444 - X3445 - X3446 - X3447 + 4 X3448 >= 0
 C2881: - X3444 - X3445 - X3446 - X3447 + 4 X3448 <= 0
 C2492: X2825 + X2827 + X2831 + [ X2821 * X2824 ] >= 1
Bounds
 X2738 = 3
 X2739 = 4
Binaries
 X2821 X2824 X2825 X2827 X2831 X3444 X3445 X3446 X3447 X3448 X3651 X3652
 X3653 X3654
Generals
 X2738 X2739
End
